* #variable= 100 #constraint= 1
min: -814 x1 -312 x2 -946 x3 -112 x4 -8 x5 -618 x6 -992 x7 -830 x8 -562 x9 -876 x10 -192 x11 -482 x12 -578 x13 -396 x14 -890 x15 -790 x16 -474 x17 -504 x18 -944 x19 -780 x20 -674 x21 -176 x22 -784 x23 -84 x24 -618 x25 -988 x26 -810 x27 -236 x28 -546 x29 -40 x30 -738 x31 -22 x32 -98 x33 -600 x34 -414 x35 -652 x36 -918 x37 -692 x38 -604 x39 -924 x40 -306 x41 -172 x42 -822 x43 -672 x44 -346 x45 -654 x46 -268 x47 -330 x48 -722 x49 -938 x50 -214 x51 -456 x52 -624 x53 -554 x54 -70 x55 -890 x56 -796 x57 -340 x58 -404 x59 -658 x60 -456 x61 -766 x62 -298 x63 -418 x64 -970 x65 -950 x66 -970 x67 -272 x68 -42 x69 -734 x70 -622 x71 -454 x72 -874 x73 -674 x74 -66 x75 -896 x76 -74 x77 -112 x78 -884 x79 -518 x80 -380 x81 -526 x82 -24 x83 -928 x84 -900 x85 -572 x86 -372 x87 -852 x88 -956 x89 -740 x90 -608 x91 -948 x92 -296 x93 -734 x94 -848 x95 -22 x96 -172 x97 -958 x98 -566 x99 -404 x100 ;
-814 x1 -312 x2 -946 x3 -112 x4 -8 x5 -618 x6 -992 x7 -830 x8 -562 x9 -876 x10 -192 x11 -482 x12 -578 x13 -396 x14 -890 x15 -790 x16 -474 x17 -504 x18 -944 x19 -780 x20 -674 x21 -176 x22 -784 x23 -84 x24 -618 x25 -988 x26 -810 x27 -236 x28 -546 x29 -40 x30 -738 x31 -22 x32 -98 x33 -600 x34 -414 x35 -652 x36 -918 x37 -692 x38 -604 x39 -924 x40 -306 x41 -172 x42 -822 x43 -672 x44 -346 x45 -654 x46 -268 x47 -330 x48 -722 x49 -938 x50 -214 x51 -456 x52 -624 x53 -554 x54 -70 x55 -890 x56 -796 x57 -340 x58 -404 x59 -658 x60 -456 x61 -766 x62 -298 x63 -418 x64 -970 x65 -950 x66 -970 x67 -272 x68 -42 x69 -734 x70 -622 x71 -454 x72 -874 x73 -674 x74 -66 x75 -896 x76 -74 x77 -112 x78 -884 x79 -518 x80 -380 x81 -526 x82 -24 x83 -928 x84 -900 x85 -572 x86 -372 x87 -852 x88 -956 x89 -740 x90 -608 x91 -948 x92 -296 x93 -734 x94 -848 x95 -22 x96 -172 x97 -958 x98 -566 x99 -404 x100 >= -27877 ;